NAME: X344-FSMD
COMMENT: Generated by Uchoa, Pecin, Pessoa, Poggi, Subramanian, and Vidal (2013). Modified by Sadykov, Pessoa and Uchoa (2017). Converted to PyVRP's VRPLIB dialect.
TYPE: HFVRP
DIMENSION: 344
VEHICLES: 1715
EDGE_WEIGHT_TYPE: EUC_2D
NODE_COORD_SECTION
1	500	500
2	615	190
3	890	200
4	983	684
5	874	112
6	906	186
7	801	278
8	823	446
9	242	544
10	505	210
11	767	766
12	698	305
13	707	511
14	10	968
15	172	13
16	57	414
17	317	373
18	849	680
19	854	12
20	429	688
21	822	378
22	774	584
23	601	895
24	921	309
25	176	165
26	368	432
27	656	430
28	715	225
29	35	264
30	544	994
31	214	533
32	573	650
33	259	595
34	38	550
35	925	755
36	337	562
37	412	969
38	919	402
39	391	792
40	424	206
41	259	588
42	79	364
43	667	978
44	332	593
45	270	544
46	745	267
47	760	786
48	134	998
49	117	320
50	966	458
51	133	334
52	986	462
53	176	290
54	120	296
55	201	878
56	615	293
57	24	217
58	418	662
59	831	314
60	832	564
61	945	758
62	394	446
63	843	680
64	24	613
65	422	956
66	411	58
67	512	655
68	657	544
69	644	748
70	162	924
71	64	57
72	773	727
73	1	461
74	167	981
75	180	346
76	495	295
77	589	311
78	273	186
79	493	121
80	522	653
81	704	909
82	157	9
83	90	625
84	632	964
85	347	750
86	825	940
87	9	237
88	181	662
89	722	724
90	106	978
91	746	981
92	603	944
93	734	612
94	163	142
95	743	16
96	910	272
97	495	584
98	985	968
99	901	149
100	192	878
101	817	700
102	888	1
103	70	323
104	119	255
105	716	413
106	17	309
107	558	122
108	436	663
109	912	64
110	846	973
111	622	271
112	469	629
113	326	388
114	675	587
115	974	135
116	620	443
117	585	6
118	134	764
119	276	222
120	869	663
121	517	935
122	681	631
123	650	679
124	277	612
125	654	76
126	101	332
127	162	792
128	480	878
129	730	728
130	8	525
131	340	489
132	194	815
133	183	75
134	345	884
135	660	841
136	712	42
137	655	695
138	880	600
139	50	555
140	406	946
141	490	53
142	712	878
143	396	484
144	225	176
145	235	9
146	768	438
147	33	116
148	197	149
149	141	312
150	301	18
151	251	83
152	930	549
153	662	99
154	394	872
155	793	659
156	104	821
157	953	401
158	459	264
159	353	254
160	986	680
161	375	639
162	733	982
163	82	923
164	912	604
165	992	123
166	784	823
167	82	859
168	803	338
169	67	555
170	5	102
171	907	896
172	654	393
173	573	527
174	122	150
175	65	9
176	41	545
177	680	22
178	685	814
179	520	817
180	575	872
181	232	836
182	150	82
183	734	779
184	555	13
185	774	848
186	101	440
187	44	141
188	573	609
189	552	463
190	436	773
191	497	547
192	513	861
193	767	794
194	461	804
195	95	192
196	236	121
197	678	796
198	711	637
199	687	7
200	507	855
201	105	82
202	550	658
203	595	507
204	604	726
205	745	746
206	608	519
207	551	750
208	439	943
209	562	496
210	379	464
211	618	848
212	565	519
213	514	548
214	512	435
215	55	556
216	486	762
217	42	31
218	561	797
219	581	510
220	586	888
221	418	791
222	112	157
223	136	189
224	589	92
225	41	501
226	383	686
227	419	687
228	466	837
229	144	85
230	445	538
231	637	46
232	219	38
233	27	564
234	710	875
235	58	518
236	92	293
237	842	895
238	731	737
239	606	332
240	606	704
241	789	879
242	609	368
243	508	818
244	72	46
245	137	70
246	113	113
247	41	399
248	112	82
249	678	743
250	214	619
251	471	405
252	92	163
253	804	753
254	914	234
255	172	328
256	129	161
257	64	580
258	667	727
259	496	806
260	121	150
261	698	50
262	613	106
263	583	675
264	466	675
265	313	775
266	30	555
267	137	266
268	668	604
269	705	747
270	722	981
271	649	808
272	163	244
273	565	370
274	499	841
275	46	194
276	513	530
277	638	832
278	752	797
279	132	16
280	570	3
281	702	820
282	462	689
283	426	818
284	500	887
285	489	725
286	198	26
287	9	875
288	29	588
289	640	6
290	624	762
291	180	262
292	843	98
293	661	64
294	142	149
295	748	925
296	555	765
297	669	393
298	54	527
299	2	57
300	694	679
301	641	883
302	98	518
303	123	564
304	920	860
305	77	506
306	656	17
307	377	640
308	819	879
309	76	94
310	117	360
311	10	614
312	474	845
313	702	63
314	741	232
315	460	792
316	689	901
317	5	718
318	610	765
319	677	851
320	698	725
321	574	13
322	87	650
323	666	687
324	5	190
325	103	530
326	582	474
327	26	148
328	539	901
329	15	159
330	32	1
331	158	173
332	571	516
333	650	658
334	161	140
335	499	834
336	570	682
337	139	525
338	577	356
339	175	121
340	698	54
341	561	547
342	553	546
343	671	10
344	509	650
DEMAND_SECTION
1	0
2	7
3	10
4	7
5	8
6	9
7	8
8	5
9	7
10	7
11	5
12	10
13	8
14	6
15	7
16	7
17	5
18	9
19	10
20	10
21	7
22	5
23	9
24	10
25	10
26	8
27	5
28	9
29	7
30	6
31	8
32	5
33	8
34	7
35	6
36	6
37	10
38	10
39	9
40	6
41	8
42	9
43	9
44	7
45	10
46	5
47	10
48	6
49	5
50	7
51	9
52	10
53	7
54	10
55	5
56	10
57	8
58	9
59	5
60	8
61	10
62	6
63	8
64	5
65	7
66	5
67	5
68	10
69	5
70	8
71	7
72	9
73	5
74	6
75	10
76	6
77	7
78	10
79	10
80	6
81	6
82	10
83	9
84	6
85	10
86	6
87	9
88	10
89	8
90	8
91	9
92	9
93	9
94	10
95	7
96	6
97	9
98	8
99	7
100	6
101	8
102	10
103	7
104	10
105	9
106	8
107	10
108	8
109	6
110	9
111	10
112	9
113	6
114	9
115	8
116	8
117	6
118	7
119	8
120	7
121	8
122	8
123	5
124	6
125	10
126	5
127	7
128	6
129	7
130	5
131	7
132	6
133	7
134	6
135	10
136	6
137	6
138	8
139	7
140	10
141	9
142	10
143	6
144	10
145	5
146	9
147	8
148	5
149	9
150	7
151	9
152	9
153	7
154	6
155	5
156	10
157	5
158	6
159	5
160	5
161	6
162	8
163	10
164	8
165	5
166	7
167	10
168	5
169	8
170	8
171	9
172	7
173	6
174	7
175	9
176	7
177	7
178	7
179	9
180	7
181	8
182	8
183	10
184	6
185	9
186	8
187	10
188	8
189	6
190	6
191	5
192	8
193	5
194	8
195	5
196	7
197	9
198	9
199	7
200	10
201	6
202	8
203	9
204	10
205	10
206	8
207	9
208	8
209	5
210	8
211	10
212	9
213	6
214	5
215	8
216	6
217	8
218	5
219	7
220	5
221	9
222	7
223	10
224	9
225	7
226	10
227	10
228	8
229	9
230	7
231	7
232	10
233	6
234	10
235	7
236	7
237	6
238	7
239	9
240	9
241	9
242	8
243	6
244	9
245	9
246	9
247	7
248	7
249	7
250	7
251	9
252	8
253	10
254	10
255	5
256	6
257	6
258	10
259	7
260	5
261	7
262	8
263	6
264	9
265	6
266	8
267	5
268	9
269	6
270	5
271	6
272	7
273	6
274	7
275	9
276	7
277	7
278	5
279	9
280	5
281	6
282	5
283	10
284	10
285	5
286	10
287	5
288	7
289	7
290	8
291	8
292	8
293	9
294	7
295	7
296	9
297	5
298	10
299	8
300	8
301	6
302	10
303	5
304	10
305	7
306	7
307	8
308	9
309	9
310	5
311	7
312	8
313	9
314	5
315	10
316	9
317	7
318	8
319	7
320	9
321	8
322	7
323	7
324	5
325	7
326	5
327	7
328	6
329	7
330	9
331	10
332	6
333	8
334	10
335	7
336	9
337	10
338	8
339	8
340	8
341	9
342	5
343	8
344	6
CAPACITY_SECTION
1	27
2	27
3	27
4	27
5	27
6	27
7	27
8	27
9	27
10	27
11	27
12	27
13	27
14	27
15	27
16	27
17	27
18	27
19	27
20	27
21	27
22	27
23	27
24	27
25	27
26	27
27	27
28	27
29	27
30	27
31	27
32	27
33	27
34	27
35	27
36	27
37	27
38	27
39	27
40	27
41	27
42	27
43	27
44	27
45	27
46	27
47	27
48	27
49	27
50	27
51	27
52	27
53	27
54	27
55	27
56	27
57	27
58	27
59	27
60	27
61	27
62	27
63	27
64	27
65	27
66	27
67	27
68	27
69	27
70	27
71	27
72	27
73	27
74	27
75	27
76	27
77	27
78	27
79	27
80	27
81	27
82	27
83	27
84	27
85	27
86	27
87	27
88	27
89	27
90	27
91	27
92	27
93	27
94	27
95	27
96	27
97	27
98	27
99	27
100	27
101	27
102	27
103	27
104	27
105	27
106	27
107	27
108	27
109	27
110	27
111	27
112	27
113	27
114	27
115	27
116	27
117	27
118	27
119	27
120	27
121	27
122	27
123	27
124	27
125	27
126	27
127	27
128	27
129	27
130	27
131	27
132	27
133	27
134	27
135	27
136	27
137	27
138	27
139	27
140	27
141	27
142	27
143	27
144	27
145	27
146	27
147	27
148	27
149	27
150	27
151	27
152	27
153	27
154	27
155	27
156	27
157	27
158	27
159	27
160	27
161	27
162	27
163	27
164	27
165	27
166	27
167	27
168	27
169	27
170	27
171	27
172	27
173	27
174	27
175	27
176	27
177	27
178	27
179	27
180	27
181	27
182	27
183	27
184	27
185	27
186	27
187	27
188	27
189	27
190	27
191	27
192	27
193	27
194	27
195	27
196	27
197	27
198	27
199	27
200	27
201	27
202	27
203	27
204	27
205	27
206	27
207	27
208	27
209	27
210	27
211	27
212	27
213	27
214	27
215	27
216	27
217	27
218	27
219	27
220	27
221	27
222	27
223	27
224	27
225	27
226	27
227	27
228	27
229	27
230	27
231	27
232	27
233	27
234	27
235	27
236	27
237	27
238	27
239	27
240	27
241	27
242	27
243	27
244	27
245	27
246	27
247	27
248	27
249	27
250	27
251	27
252	27
253	27
254	27
255	27
256	27
257	27
258	27
259	27
260	27
261	27
262	27
263	27
264	27
265	27
266	27
267	27
268	27
269	27
270	27
271	27
272	27
273	27
274	27
275	27
276	27
277	27
278	27
279	27
280	27
281	27
282	27
283	27
284	27
285	27
286	27
287	27
288	27
289	27
290	27
291	27
292	27
293	27
294	27
295	27
296	27
297	27
298	27
299	27
300	27
301	27
302	27
303	27
304	27
305	27
306	27
307	27
308	27
309	27
310	27
311	27
312	27
313	27
314	27
315	27
316	27
317	27
318	27
319	27
320	27
321	27
322	27
323	27
324	27
325	27
326	27
327	27
328	27
329	27
330	27
331	27
332	27
333	27
334	27
335	27
336	27
337	27
338	27
339	27
340	27
341	27
342	27
343	27
344	38
345	38
346	38
347	38
348	38
349	38
350	38
351	38
352	38
353	38
354	38
355	38
356	38
357	38
358	38
359	38
360	38
361	38
362	38
363	38
364	38
365	38
366	38
367	38
368	38
369	38
370	38
371	38
372	38
373	38
374	38
375	38
376	38
377	38
378	38
379	38
380	38
381	38
382	38
383	38
384	38
385	38
386	38
387	38
388	38
389	38
390	38
391	38
392	38
393	38
394	38
395	38
396	38
397	38
398	38
399	38
400	38
401	38
402	38
403	38
404	38
405	38
406	38
407	38
408	38
409	38
410	38
411	38
412	38
413	38
414	38
415	38
416	38
417	38
418	38
419	38
420	38
421	38
422	38
423	38
424	38
425	38
426	38
427	38
428	38
429	38
430	38
431	38
432	38
433	38
434	38
435	38
436	38
437	38
438	38
439	38
440	38
441	38
442	38
443	38
444	38
445	38
446	38
447	38
448	38
449	38
450	38
451	38
452	38
453	38
454	38
455	38
456	38
457	38
458	38
459	38
460	38
461	38
462	38
463	38
464	38
465	38
466	38
467	38
468	38
469	38
470	38
471	38
472	38
473	38
474	38
475	38
476	38
477	38
478	38
479	38
480	38
481	38
482	38
483	38
484	38
485	38
486	38
487	38
488	38
489	38
490	38
491	38
492	38
493	38
494	38
495	38
496	38
497	38
498	38
499	38
500	38
501	38
502	38
503	38
504	38
505	38
506	38
507	38
508	38
509	38
510	38
511	38
512	38
513	38
514	38
515	38
516	38
517	38
518	38
519	38
520	38
521	38
522	38
523	38
524	38
525	38
526	38
527	38
528	38
529	38
530	38
531	38
532	38
533	38
534	38
535	38
536	38
537	38
538	38
539	38
540	38
541	38
542	38
543	38
544	38
545	38
546	38
547	38
548	38
549	38
550	38
551	38
552	38
553	38
554	38
555	38
556	38
557	38
558	38
559	38
560	38
561	38
562	38
563	38
564	38
565	38
566	38
567	38
568	38
569	38
570	38
571	38
572	38
573	38
574	38
575	38
576	38
577	38
578	38
579	38
580	38
581	38
582	38
583	38
584	38
585	38
586	38
587	38
588	38
589	38
590	38
591	38
592	38
593	38
594	38
595	38
596	38
597	38
598	38
599	38
600	38
601	38
602	38
603	38
604	38
605	38
606	38
607	38
608	38
609	38
610	38
611	38
612	38
613	38
614	38
615	38
616	38
617	38
618	38
619	38
620	38
621	38
622	38
623	38
624	38
625	38
626	38
627	38
628	38
629	38
630	38
631	38
632	38
633	38
634	38
635	38
636	38
637	38
638	38
639	38
640	38
641	38
642	38
643	38
644	38
645	38
646	38
647	38
648	38
649	38
650	38
651	38
652	38
653	38
654	38
655	38
656	38
657	38
658	38
659	38
660	38
661	38
662	38
663	38
664	38
665	38
666	38
667	38
668	38
669	38
670	38
671	38
672	38
673	38
674	38
675	38
676	38
677	38
678	38
679	38
680	38
681	38
682	38
683	38
684	38
685	38
686	38
687	54
688	54
689	54
690	54
691	54
692	54
693	54
694	54
695	54
696	54
697	54
698	54
699	54
700	54
701	54
702	54
703	54
704	54
705	54
706	54
707	54
708	54
709	54
710	54
711	54
712	54
713	54
714	54
715	54
716	54
717	54
718	54
719	54
720	54
721	54
722	54
723	54
724	54
725	54
726	54
727	54
728	54
729	54
730	54
731	54
732	54
733	54
734	54
735	54
736	54
737	54
738	54
739	54
740	54
741	54
742	54
743	54
744	54
745	54
746	54
747	54
748	54
749	54
750	54
751	54
752	54
753	54
754	54
755	54
756	54
757	54
758	54
759	54
760	54
761	54
762	54
763	54
764	54
765	54
766	54
767	54
768	54
769	54
770	54
771	54
772	54
773	54
774	54
775	54
776	54
777	54
778	54
779	54
780	54
781	54
782	54
783	54
784	54
785	54
786	54
787	54
788	54
789	54
790	54
791	54
792	54
793	54
794	54
795	54
796	54
797	54
798	54
799	54
800	54
801	54
802	54
803	54
804	54
805	54
806	54
807	54
808	54
809	54
810	54
811	54
812	54
813	54
814	54
815	54
816	54
817	54
818	54
819	54
820	54
821	54
822	54
823	54
824	54
825	54
826	54
827	54
828	54
829	54
830	54
831	54
832	54
833	54
834	54
835	54
836	54
837	54
838	54
839	54
840	54
841	54
842	54
843	54
844	54
845	54
846	54
847	54
848	54
849	54
850	54
851	54
852	54
853	54
854	54
855	54
856	54
857	54
858	54
859	54
860	54
861	54
862	54
863	54
864	54
865	54
866	54
867	54
868	54
869	54
870	54
871	54
872	54
873	54
874	54
875	54
876	54
877	54
878	54
879	54
880	54
881	54
882	54
883	54
884	54
885	54
886	54
887	54
888	54
889	54
890	54
891	54
892	54
893	54
894	54
895	54
896	54
897	54
898	54
899	54
900	54
901	54
902	54
903	54
904	54
905	54
906	54
907	54
908	54
909	54
910	54
911	54
912	54
913	54
914	54
915	54
916	54
917	54
918	54
919	54
920	54
921	54
922	54
923	54
924	54
925	54
926	54
927	54
928	54
929	54
930	54
931	54
932	54
933	54
934	54
935	54
936	54
937	54
938	54
939	54
940	54
941	54
942	54
943	54
944	54
945	54
946	54
947	54
948	54
949	54
950	54
951	54
952	54
953	54
954	54
955	54
956	54
957	54
958	54
959	54
960	54
961	54
962	54
963	54
964	54
965	54
966	54
967	54
968	54
969	54
970	54
971	54
972	54
973	54
974	54
975	54
976	54
977	54
978	54
979	54
980	54
981	54
982	54
983	54
984	54
985	54
986	54
987	54
988	54
989	54
990	54
991	54
992	54
993	54
994	54
995	54
996	54
997	54
998	54
999	54
1000	54
1001	54
1002	54
1003	54
1004	54
1005	54
1006	54
1007	54
1008	54
1009	54
1010	54
1011	54
1012	54
1013	54
1014	54
1015	54
1016	54
1017	54
1018	54
1019	54
1020	54
1021	54
1022	54
1023	54
1024	54
1025	54
1026	54
1027	54
1028	54
1029	54
1030	77
1031	77
1032	77
1033	77
1034	77
1035	77
1036	77
1037	77
1038	77
1039	77
1040	77
1041	77
1042	77
1043	77
1044	77
1045	77
1046	77
1047	77
1048	77
1049	77
1050	77
1051	77
1052	77
1053	77
1054	77
1055	77
1056	77
1057	77
1058	77
1059	77
1060	77
1061	77
1062	77
1063	77
1064	77
1065	77
1066	77
1067	77
1068	77
1069	77
1070	77
1071	77
1072	77
1073	77
1074	77
1075	77
1076	77
1077	77
1078	77
1079	77
1080	77
1081	77
1082	77
1083	77
1084	77
1085	77
1086	77
1087	77
1088	77
1089	77
1090	77
1091	77
1092	77
1093	77
1094	77
1095	77
1096	77
1097	77
1098	77
1099	77
1100	77
1101	77
1102	77
1103	77
1104	77
1105	77
1106	77
1107	77
1108	77
1109	77
1110	77
1111	77
1112	77
1113	77
1114	77
1115	77
1116	77
1117	77
1118	77
1119	77
1120	77
1121	77
1122	77
1123	77
1124	77
1125	77
1126	77
1127	77
1128	77
1129	77
1130	77
1131	77
1132	77
1133	77
1134	77
1135	77
1136	77
1137	77
1138	77
1139	77
1140	77
1141	77
1142	77
1143	77
1144	77
1145	77
1146	77
1147	77
1148	77
1149	77
1150	77
1151	77
1152	77
1153	77
1154	77
1155	77
1156	77
1157	77
1158	77
1159	77
1160	77
1161	77
1162	77
1163	77
1164	77
1165	77
1166	77
1167	77
1168	77
1169	77
1170	77
1171	77
1172	77
1173	77
1174	77
1175	77
1176	77
1177	77
1178	77
1179	77
1180	77
1181	77
1182	77
1183	77
1184	77
1185	77
1186	77
1187	77
1188	77
1189	77
1190	77
1191	77
1192	77
1193	77
1194	77
1195	77
1196	77
1197	77
1198	77
1199	77
1200	77
1201	77
1202	77
1203	77
1204	77
1205	77
1206	77
1207	77
1208	77
1209	77
1210	77
1211	77
1212	77
1213	77
1214	77
1215	77
1216	77
1217	77
1218	77
1219	77
1220	77
1221	77
1222	77
1223	77
1224	77
1225	77
1226	77
1227	77
1228	77
1229	77
1230	77
1231	77
1232	77
1233	77
1234	77
1235	77
1236	77
1237	77
1238	77
1239	77
1240	77
1241	77
1242	77
1243	77
1244	77
1245	77
1246	77
1247	77
1248	77
1249	77
1250	77
1251	77
1252	77
1253	77
1254	77
1255	77
1256	77
1257	77
1258	77
1259	77
1260	77
1261	77
1262	77
1263	77
1264	77
1265	77
1266	77
1267	77
1268	77
1269	77
1270	77
1271	77
1272	77
1273	77
1274	77
1275	77
1276	77
1277	77
1278	77
1279	77
1280	77
1281	77
1282	77
1283	77
1284	77
1285	77
1286	77
1287	77
1288	77
1289	77
1290	77
1291	77
1292	77
1293	77
1294	77
1295	77
1296	77
1297	77
1298	77
1299	77
1300	77
1301	77
1302	77
1303	77
1304	77
1305	77
1306	77
1307	77
1308	77
1309	77
1310	77
1311	77
1312	77
1313	77
1314	77
1315	77
1316	77
1317	77
1318	77
1319	77
1320	77
1321	77
1322	77
1323	77
1324	77
1325	77
1326	77
1327	77
1328	77
1329	77
1330	77
1331	77
1332	77
1333	77
1334	77
1335	77
1336	77
1337	77
1338	77
1339	77
1340	77
1341	77
1342	77
1343	77
1344	77
1345	77
1346	77
1347	77
1348	77
1349	77
1350	77
1351	77
1352	77
1353	77
1354	77
1355	77
1356	77
1357	77
1358	77
1359	77
1360	77
1361	77
1362	77
1363	77
1364	77
1365	77
1366	77
1367	77
1368	77
1369	77
1370	77
1371	77
1372	77
1373	109
1374	109
1375	109
1376	109
1377	109
1378	109
1379	109
1380	109
1381	109
1382	109
1383	109
1384	109
1385	109
1386	109
1387	109
1388	109
1389	109
1390	109
1391	109
1392	109
1393	109
1394	109
1395	109
1396	109
1397	109
1398	109
1399	109
1400	109
1401	109
1402	109
1403	109
1404	109
1405	109
1406	109
1407	109
1408	109
1409	109
1410	109
1411	109
1412	109
1413	109
1414	109
1415	109
1416	109
1417	109
1418	109
1419	109
1420	109
1421	109
1422	109
1423	109
1424	109
1425	109
1426	109
1427	109
1428	109
1429	109
1430	109
1431	109
1432	109
1433	109
1434	109
1435	109
1436	109
1437	109
1438	109
1439	109
1440	109
1441	109
1442	109
1443	109
1444	109
1445	109
1446	109
1447	109
1448	109
1449	109
1450	109
1451	109
1452	109
1453	109
1454	109
1455	109
1456	109
1457	109
1458	109
1459	109
1460	109
1461	109
1462	109
1463	109
1464	109
1465	109
1466	109
1467	109
1468	109
1469	109
1470	109
1471	109
1472	109
1473	109
1474	109
1475	109
1476	109
1477	109
1478	109
1479	109
1480	109
1481	109
1482	109
1483	109
1484	109
1485	109
1486	109
1487	109
1488	109
1489	109
1490	109
1491	109
1492	109
1493	109
1494	109
1495	109
1496	109
1497	109
1498	109
1499	109
1500	109
1501	109
1502	109
1503	109
1504	109
1505	109
1506	109
1507	109
1508	109
1509	109
1510	109
1511	109
1512	109
1513	109
1514	109
1515	109
1516	109
1517	109
1518	109
1519	109
1520	109
1521	109
1522	109
1523	109
1524	109
1525	109
1526	109
1527	109
1528	109
1529	109
1530	109
1531	109
1532	109
1533	109
1534	109
1535	109
1536	109
1537	109
1538	109
1539	109
1540	109
1541	109
1542	109
1543	109
1544	109
1545	109
1546	109
1547	109
1548	109
1549	109
1550	109
1551	109
1552	109
1553	109
1554	109
1555	109
1556	109
1557	109
1558	109
1559	109
1560	109
1561	109
1562	109
1563	109
1564	109
1565	109
1566	109
1567	109
1568	109
1569	109
1570	109
1571	109
1572	109
1573	109
1574	109
1575	109
1576	109
1577	109
1578	109
1579	109
1580	109
1581	109
1582	109
1583	109
1584	109
1585	109
1586	109
1587	109
1588	109
1589	109
1590	109
1591	109
1592	109
1593	109
1594	109
1595	109
1596	109
1597	109
1598	109
1599	109
1600	109
1601	109
1602	109
1603	109
1604	109
1605	109
1606	109
1607	109
1608	109
1609	109
1610	109
1611	109
1612	109
1613	109
1614	109
1615	109
1616	109
1617	109
1618	109
1619	109
1620	109
1621	109
1622	109
1623	109
1624	109
1625	109
1626	109
1627	109
1628	109
1629	109
1630	109
1631	109
1632	109
1633	109
1634	109
1635	109
1636	109
1637	109
1638	109
1639	109
1640	109
1641	109
1642	109
1643	109
1644	109
1645	109
1646	109
1647	109
1648	109
1649	109
1650	109
1651	109
1652	109
1653	109
1654	109
1655	109
1656	109
1657	109
1658	109
1659	109
1660	109
1661	109
1662	109
1663	109
1664	109
1665	109
1666	109
1667	109
1668	109
1669	109
1670	109
1671	109
1672	109
1673	109
1674	109
1675	109
1676	109
1677	109
1678	109
1679	109
1680	109
1681	109
1682	109
1683	109
1684	109
1685	109
1686	109
1687	109
1688	109
1689	109
1690	109
1691	109
1692	109
1693	109
1694	109
1695	109
1696	109
1697	109
1698	109
1699	109
1700	109
1701	109
1702	109
1703	109
1704	109
1705	109
1706	109
1707	109
1708	109
1709	109
1710	109
1711	109
1712	109
1713	109
1714	109
1715	109
VEHICLES_UNIT_DISTANCE_COST_SECTION
1	50
2	50
3	50
4	50
5	50
6	50
7	50
8	50
9	50
10	50
11	50
12	50
13	50
14	50
15	50
16	50
17	50
18	50
19	50
20	50
21	50
22	50
23	50
24	50
25	50
26	50
27	50
28	50
29	50
30	50
31	50
32	50
33	50
34	50
35	50
36	50
37	50
38	50
39	50
40	50
41	50
42	50
43	50
44	50
45	50
46	50
47	50
48	50
49	50
50	50
51	50
52	50
53	50
54	50
55	50
56	50
57	50
58	50
59	50
60	50
61	50
62	50
63	50
64	50
65	50
66	50
67	50
68	50
69	50
70	50
71	50
72	50
73	50
74	50
75	50
76	50
77	50
78	50
79	50
80	50
81	50
82	50
83	50
84	50
85	50
86	50
87	50
88	50
89	50
90	50
91	50
92	50
93	50
94	50
95	50
96	50
97	50
98	50
99	50
100	50
101	50
102	50
103	50
104	50
105	50
106	50
107	50
108	50
109	50
110	50
111	50
112	50
113	50
114	50
115	50
116	50
117	50
118	50
119	50
120	50
121	50
122	50
123	50
124	50
125	50
126	50
127	50
128	50
129	50
130	50
131	50
132	50
133	50
134	50
135	50
136	50
137	50
138	50
139	50
140	50
141	50
142	50
143	50
144	50
145	50
146	50
147	50
148	50
149	50
150	50
151	50
152	50
153	50
154	50
155	50
156	50
157	50
158	50
159	50
160	50
161	50
162	50
163	50
164	50
165	50
166	50
167	50
168	50
169	50
170	50
171	50
172	50
173	50
174	50
175	50
176	50
177	50
178	50
179	50
180	50
181	50
182	50
183	50
184	50
185	50
186	50
187	50
188	50
189	50
190	50
191	50
192	50
193	50
194	50
195	50
196	50
197	50
198	50
199	50
200	50
201	50
202	50
203	50
204	50
205	50
206	50
207	50
208	50
209	50
210	50
211	50
212	50
213	50
214	50
215	50
216	50
217	50
218	50
219	50
220	50
221	50
222	50
223	50
224	50
225	50
226	50
227	50
228	50
229	50
230	50
231	50
232	50
233	50
234	50
235	50
236	50
237	50
238	50
239	50
240	50
241	50
242	50
243	50
244	50
245	50
246	50
247	50
248	50
249	50
250	50
251	50
252	50
253	50
254	50
255	50
256	50
257	50
258	50
259	50
260	50
261	50
262	50
263	50
264	50
265	50
266	50
267	50
268	50
269	50
270	50
271	50
272	50
273	50
274	50
275	50
276	50
277	50
278	50
279	50
280	50
281	50
282	50
283	50
284	50
285	50
286	50
287	50
288	50
289	50
290	50
291	50
292	50
293	50
294	50
295	50
296	50
297	50
298	50
299	50
300	50
301	50
302	50
303	50
304	50
305	50
306	50
307	50
308	50
309	50
310	50
311	50
312	50
313	50
314	50
315	50
316	50
317	50
318	50
319	50
320	50
321	50
322	50
323	50
324	50
325	50
326	50
327	50
328	50
329	50
330	50
331	50
332	50
333	50
334	50
335	50
336	50
337	50
338	50
339	50
340	50
341	50
342	50
343	50
344	71
345	71
346	71
347	71
348	71
349	71
350	71
351	71
352	71
353	71
354	71
355	71
356	71
357	71
358	71
359	71
360	71
361	71
362	71
363	71
364	71
365	71
366	71
367	71
368	71
369	71
370	71
371	71
372	71
373	71
374	71
375	71
376	71
377	71
378	71
379	71
380	71
381	71
382	71
383	71
384	71
385	71
386	71
387	71
388	71
389	71
390	71
391	71
392	71
393	71
394	71
395	71
396	71
397	71
398	71
399	71
400	71
401	71
402	71
403	71
404	71
405	71
406	71
407	71
408	71
409	71
410	71
411	71
412	71
413	71
414	71
415	71
416	71
417	71
418	71
419	71
420	71
421	71
422	71
423	71
424	71
425	71
426	71
427	71
428	71
429	71
430	71
431	71
432	71
433	71
434	71
435	71
436	71
437	71
438	71
439	71
440	71
441	71
442	71
443	71
444	71
445	71
446	71
447	71
448	71
449	71
450	71
451	71
452	71
453	71
454	71
455	71
456	71
457	71
458	71
459	71
460	71
461	71
462	71
463	71
464	71
465	71
466	71
467	71
468	71
469	71
470	71
471	71
472	71
473	71
474	71
475	71
476	71
477	71
478	71
479	71
480	71
481	71
482	71
483	71
484	71
485	71
486	71
487	71
488	71
489	71
490	71
491	71
492	71
493	71
494	71
495	71
496	71
497	71
498	71
499	71
500	71
501	71
502	71
503	71
504	71
505	71
506	71
507	71
508	71
509	71
510	71
511	71
512	71
513	71
514	71
515	71
516	71
517	71
518	71
519	71
520	71
521	71
522	71
523	71
524	71
525	71
526	71
527	71
528	71
529	71
530	71
531	71
532	71
533	71
534	71
535	71
536	71
537	71
538	71
539	71
540	71
541	71
542	71
543	71
544	71
545	71
546	71
547	71
548	71
549	71
550	71
551	71
552	71
553	71
554	71
555	71
556	71
557	71
558	71
559	71
560	71
561	71
562	71
563	71
564	71
565	71
566	71
567	71
568	71
569	71
570	71
571	71
572	71
573	71
574	71
575	71
576	71
577	71
578	71
579	71
580	71
581	71
582	71
583	71
584	71
585	71
586	71
587	71
588	71
589	71
590	71
591	71
592	71
593	71
594	71
595	71
596	71
597	71
598	71
599	71
600	71
601	71
602	71
603	71
604	71
605	71
606	71
607	71
608	71
609	71
610	71
611	71
612	71
613	71
614	71
615	71
616	71
617	71
618	71
619	71
620	71
621	71
622	71
623	71
624	71
625	71
626	71
627	71
628	71
629	71
630	71
631	71
632	71
633	71
634	71
635	71
636	71
637	71
638	71
639	71
640	71
641	71
642	71
643	71
644	71
645	71
646	71
647	71
648	71
649	71
650	71
651	71
652	71
653	71
654	71
655	71
656	71
657	71
658	71
659	71
660	71
661	71
662	71
663	71
664	71
665	71
666	71
667	71
668	71
669	71
670	71
671	71
672	71
673	71
674	71
675	71
676	71
677	71
678	71
679	71
680	71
681	71
682	71
683	71
684	71
685	71
686	71
687	100
688	100
689	100
690	100
691	100
692	100
693	100
694	100
695	100
696	100
697	100
698	100
699	100
700	100
701	100
702	100
703	100
704	100
705	100
706	100
707	100
708	100
709	100
710	100
711	100
712	100
713	100
714	100
715	100
716	100
717	100
718	100
719	100
720	100
721	100
722	100
723	100
724	100
725	100
726	100
727	100
728	100
729	100
730	100
731	100
732	100
733	100
734	100
735	100
736	100
737	100
738	100
739	100
740	100
741	100
742	100
743	100
744	100
745	100
746	100
747	100
748	100
749	100
750	100
751	100
752	100
753	100
754	100
755	100
756	100
757	100
758	100
759	100
760	100
761	100
762	100
763	100
764	100
765	100
766	100
767	100
768	100
769	100
770	100
771	100
772	100
773	100
774	100
775	100
776	100
777	100
778	100
779	100
780	100
781	100
782	100
783	100
784	100
785	100
786	100
787	100
788	100
789	100
790	100
791	100
792	100
793	100
794	100
795	100
796	100
797	100
798	100
799	100
800	100
801	100
802	100
803	100
804	100
805	100
806	100
807	100
808	100
809	100
810	100
811	100
812	100
813	100
814	100
815	100
816	100
817	100
818	100
819	100
820	100
821	100
822	100
823	100
824	100
825	100
826	100
827	100
828	100
829	100
830	100
831	100
832	100
833	100
834	100
835	100
836	100
837	100
838	100
839	100
840	100
841	100
842	100
843	100
844	100
845	100
846	100
847	100
848	100
849	100
850	100
851	100
852	100
853	100
854	100
855	100
856	100
857	100
858	100
859	100
860	100
861	100
862	100
863	100
864	100
865	100
866	100
867	100
868	100
869	100
870	100
871	100
872	100
873	100
874	100
875	100
876	100
877	100
878	100
879	100
880	100
881	100
882	100
883	100
884	100
885	100
886	100
887	100
888	100
889	100
890	100
891	100
892	100
893	100
894	100
895	100
896	100
897	100
898	100
899	100
900	100
901	100
902	100
903	100
904	100
905	100
906	100
907	100
908	100
909	100
910	100
911	100
912	100
913	100
914	100
915	100
916	100
917	100
918	100
919	100
920	100
921	100
922	100
923	100
924	100
925	100
926	100
927	100
928	100
929	100
930	100
931	100
932	100
933	100
934	100
935	100
936	100
937	100
938	100
939	100
940	100
941	100
942	100
943	100
944	100
945	100
946	100
947	100
948	100
949	100
950	100
951	100
952	100
953	100
954	100
955	100
956	100
957	100
958	100
959	100
960	100
961	100
962	100
963	100
964	100
965	100
966	100
967	100
968	100
969	100
970	100
971	100
972	100
973	100
974	100
975	100
976	100
977	100
978	100
979	100
980	100
981	100
982	100
983	100
984	100
985	100
986	100
987	100
988	100
989	100
990	100
991	100
992	100
993	100
994	100
995	100
996	100
997	100
998	100
999	100
1000	100
1001	100
1002	100
1003	100
1004	100
1005	100
1006	100
1007	100
1008	100
1009	100
1010	100
1011	100
1012	100
1013	100
1014	100
1015	100
1016	100
1017	100
1018	100
1019	100
1020	100
1021	100
1022	100
1023	100
1024	100
1025	100
1026	100
1027	100
1028	100
1029	100
1030	141
1031	141
1032	141
1033	141
1034	141
1035	141
1036	141
1037	141
1038	141
1039	141
1040	141
1041	141
1042	141
1043	141
1044	141
1045	141
1046	141
1047	141
1048	141
1049	141
1050	141
1051	141
1052	141
1053	141
1054	141
1055	141
1056	141
1057	141
1058	141
1059	141
1060	141
1061	141
1062	141
1063	141
1064	141
1065	141
1066	141
1067	141
1068	141
1069	141
1070	141
1071	141
1072	141
1073	141
1074	141
1075	141
1076	141
1077	141
1078	141
1079	141
1080	141
1081	141
1082	141
1083	141
1084	141
1085	141
1086	141
1087	141
1088	141
1089	141
1090	141
1091	141
1092	141
1093	141
1094	141
1095	141
1096	141
1097	141
1098	141
1099	141
1100	141
1101	141
1102	141
1103	141
1104	141
1105	141
1106	141
1107	141
1108	141
1109	141
1110	141
1111	141
1112	141
1113	141
1114	141
1115	141
1116	141
1117	141
1118	141
1119	141
1120	141
1121	141
1122	141
1123	141
1124	141
1125	141
1126	141
1127	141
1128	141
1129	141
1130	141
1131	141
1132	141
1133	141
1134	141
1135	141
1136	141
1137	141
1138	141
1139	141
1140	141
1141	141
1142	141
1143	141
1144	141
1145	141
1146	141
1147	141
1148	141
1149	141
1150	141
1151	141
1152	141
1153	141
1154	141
1155	141
1156	141
1157	141
1158	141
1159	141
1160	141
1161	141
1162	141
1163	141
1164	141
1165	141
1166	141
1167	141
1168	141
1169	141
1170	141
1171	141
1172	141
1173	141
1174	141
1175	141
1176	141
1177	141
1178	141
1179	141
1180	141
1181	141
1182	141
1183	141
1184	141
1185	141
1186	141
1187	141
1188	141
1189	141
1190	141
1191	141
1192	141
1193	141
1194	141
1195	141
1196	141
1197	141
1198	141
1199	141
1200	141
1201	141
1202	141
1203	141
1204	141
1205	141
1206	141
1207	141
1208	141
1209	141
1210	141
1211	141
1212	141
1213	141
1214	141
1215	141
1216	141
1217	141
1218	141
1219	141
1220	141
1221	141
1222	141
1223	141
1224	141
1225	141
1226	141
1227	141
1228	141
1229	141
1230	141
1231	141
1232	141
1233	141
1234	141
1235	141
1236	141
1237	141
1238	141
1239	141
1240	141
1241	141
1242	141
1243	141
1244	141
1245	141
1246	141
1247	141
1248	141
1249	141
1250	141
1251	141
1252	141
1253	141
1254	141
1255	141
1256	141
1257	141
1258	141
1259	141
1260	141
1261	141
1262	141
1263	141
1264	141
1265	141
1266	141
1267	141
1268	141
1269	141
1270	141
1271	141
1272	141
1273	141
1274	141
1275	141
1276	141
1277	141
1278	141
1279	141
1280	141
1281	141
1282	141
1283	141
1284	141
1285	141
1286	141
1287	141
1288	141
1289	141
1290	141
1291	141
1292	141
1293	141
1294	141
1295	141
1296	141
1297	141
1298	141
1299	141
1300	141
1301	141
1302	141
1303	141
1304	141
1305	141
1306	141
1307	141
1308	141
1309	141
1310	141
1311	141
1312	141
1313	141
1314	141
1315	141
1316	141
1317	141
1318	141
1319	141
1320	141
1321	141
1322	141
1323	141
1324	141
1325	141
1326	141
1327	141
1328	141
1329	141
1330	141
1331	141
1332	141
1333	141
1334	141
1335	141
1336	141
1337	141
1338	141
1339	141
1340	141
1341	141
1342	141
1343	141
1344	141
1345	141
1346	141
1347	141
1348	141
1349	141
1350	141
1351	141
1352	141
1353	141
1354	141
1355	141
1356	141
1357	141
1358	141
1359	141
1360	141
1361	141
1362	141
1363	141
1364	141
1365	141
1366	141
1367	141
1368	141
1369	141
1370	141
1371	141
1372	141
1373	200
1374	200
1375	200
1376	200
1377	200
1378	200
1379	200
1380	200
1381	200
1382	200
1383	200
1384	200
1385	200
1386	200
1387	200
1388	200
1389	200
1390	200
1391	200
1392	200
1393	200
1394	200
1395	200
1396	200
1397	200
1398	200
1399	200
1400	200
1401	200
1402	200
1403	200
1404	200
1405	200
1406	200
1407	200
1408	200
1409	200
1410	200
1411	200
1412	200
1413	200
1414	200
1415	200
1416	200
1417	200
1418	200
1419	200
1420	200
1421	200
1422	200
1423	200
1424	200
1425	200
1426	200
1427	200
1428	200
1429	200
1430	200
1431	200
1432	200
1433	200
1434	200
1435	200
1436	200
1437	200
1438	200
1439	200
1440	200
1441	200
1442	200
1443	200
1444	200
1445	200
1446	200
1447	200
1448	200
1449	200
1450	200
1451	200
1452	200
1453	200
1454	200
1455	200
1456	200
1457	200
1458	200
1459	200
1460	200
1461	200
1462	200
1463	200
1464	200
1465	200
1466	200
1467	200
1468	200
1469	200
1470	200
1471	200
1472	200
1473	200
1474	200
1475	200
1476	200
1477	200
1478	200
1479	200
1480	200
1481	200
1482	200
1483	200
1484	200
1485	200
1486	200
1487	200
1488	200
1489	200
1490	200
1491	200
1492	200
1493	200
1494	200
1495	200
1496	200
1497	200
1498	200
1499	200
1500	200
1501	200
1502	200
1503	200
1504	200
1505	200
1506	200
1507	200
1508	200
1509	200
1510	200
1511	200
1512	200
1513	200
1514	200
1515	200
1516	200
1517	200
1518	200
1519	200
1520	200
1521	200
1522	200
1523	200
1524	200
1525	200
1526	200
1527	200
1528	200
1529	200
1530	200
1531	200
1532	200
1533	200
1534	200
1535	200
1536	200
1537	200
1538	200
1539	200
1540	200
1541	200
1542	200
1543	200
1544	200
1545	200
1546	200
1547	200
1548	200
1549	200
1550	200
1551	200
1552	200
1553	200
1554	200
1555	200
1556	200
1557	200
1558	200
1559	200
1560	200
1561	200
1562	200
1563	200
1564	200
1565	200
1566	200
1567	200
1568	200
1569	200
1570	200
1571	200
1572	200
1573	200
1574	200
1575	200
1576	200
1577	200
1578	200
1579	200
1580	200
1581	200
1582	200
1583	200
1584	200
1585	200
1586	200
1587	200
1588	200
1589	200
1590	200
1591	200
1592	200
1593	200
1594	200
1595	200
1596	200
1597	200
1598	200
1599	200
1600	200
1601	200
1602	200
1603	200
1604	200
1605	200
1606	200
1607	200
1608	200
1609	200
1610	200
1611	200
1612	200
1613	200
1614	200
1615	200
1616	200
1617	200
1618	200
1619	200
1620	200
1621	200
1622	200
1623	200
1624	200
1625	200
1626	200
1627	200
1628	200
1629	200
1630	200
1631	200
1632	200
1633	200
1634	200
1635	200
1636	200
1637	200
1638	200
1639	200
1640	200
1641	200
1642	200
1643	200
1644	200
1645	200
1646	200
1647	200
1648	200
1649	200
1650	200
1651	200
1652	200
1653	200
1654	200
1655	200
1656	200
1657	200
1658	200
1659	200
1660	200
1661	200
1662	200
1663	200
1664	200
1665	200
1666	200
1667	200
1668	200
1669	200
1670	200
1671	200
1672	200
1673	200
1674	200
1675	200
1676	200
1677	200
1678	200
1679	200
1680	200
1681	200
1682	200
1683	200
1684	200
1685	200
1686	200
1687	200
1688	200
1689	200
1690	200
1691	200
1692	200
1693	200
1694	200
1695	200
1696	200
1697	200
1698	200
1699	200
1700	200
1701	200
1702	200
1703	200
1704	200
1705	200
1706	200
1707	200
1708	200
1709	200
1710	200
1711	200
1712	200
1713	200
1714	200
1715	200
DEPOT_SECTION
1
EOF
